
Gurobi 6.0.4 (win64) logging started 06/16/15 18:03:39

Read LP format model from file E:\Eigene Dateien\Downloads\Michi shit\VRPTWMS-master\VRPTWMS\instances\mip\fuel\N10-C_DV100-C_SV25_F5_0_No_1.lp
Reading time = 0.05 seconds
(null): 621 rows, 298 columns, 2643 nonzeros
Optimize a model with 621 rows, 298 columns and 2643 nonzeros
Model has 1100 quadratic constraints
WARNING: Only barrier available for SOCP models
Coefficient statistics:
  Matrix range    [1e+00, 1e+06]
  Objective range [4e+04, 1e+07]
  Bounds range    [1e+00, 1e+06]
  RHS range       [1e+00, 1e+06]
Presolve removed 87 rows and 54 columns
Presolve time: 0.08s
Presolved: 2077 rows, 1043 columns, 10442 nonzeros
Variable types: 744 continuous, 299 integer (247 binary)
Found heuristic solution: objective 9.367710e+07
Optimize a model with 2077 rows, 1043 columns and 10442 nonzeros
Coefficient statistics:
  Matrix range    [1e+00, 2e+06]
  Objective range [4e+04, 1e+07]
  Bounds range    [1e+00, 1e+06]
  RHS range       [1e+00, 1e+06]

Concurrent LP optimizer: dual simplex and barrier
Showing barrier log only...

Presolve removed 167 rows and 107 columns
Presolved: 1910 rows, 939 columns, 9617 nonzeros

Root barrier log...

Ordering time: 0.02s

Barrier performed 0 iterations in 0.14 seconds
Barrier solve interrupted - model solved by another algorithm


Solved with dual simplex
Solved in 55 iterations and 0.14 seconds
Optimal objective  1.581015318e+07

Root relaxation: objective 1.581015e+07, 55 iterations, 0.03 seconds

    Nodes    |    Current Node    |     Objective Bounds      |     Work
 Expl Unexpl |  Obj  Depth IntInf | Incumbent    BestBd   Gap | It/Node Time

     0     0 1.5810e+07    0   28 9.3677e+07 1.5810e+07  83.1%     -    0s
H    0     0                    7.331800e+07 1.5810e+07  78.4%     -    0s
     0     0 2.2188e+07    0   16 7.3318e+07 2.2188e+07  69.7%     -    0s
     0     0 2.2271e+07    0   23 7.3318e+07 2.2271e+07  69.6%     -    0s
H    0     0                    6.330210e+07 2.2271e+07  64.8%     -    0s
     0     0 2.2294e+07    0   20 6.3302e+07 2.2294e+07  64.8%     -    0s
     0     0 2.2297e+07    0   34 6.3302e+07 2.2297e+07  64.8%     -    0s
     0     0 2.2297e+07    0   28 6.3302e+07 2.2297e+07  64.8%     -    0s
     0     0 2.2298e+07    0   30 6.3302e+07 2.2298e+07  64.8%     -    0s
     0     0 2.2303e+07    0   36 6.3302e+07 2.2303e+07  64.8%     -    0s
     0     0 2.2303e+07    0   33 6.3302e+07 2.2303e+07  64.8%     -    0s
     0     0 2.2303e+07    0   33 6.3302e+07 2.2303e+07  64.8%     -    0s
     0     0 2.2303e+07    0   33 6.3302e+07 2.2303e+07  64.8%     -    0s
H    0     0                    5.355340e+07 2.2303e+07  58.4%     -    0s
     0     2 2.2303e+07    0   33 5.3553e+07 2.2303e+07  58.4%     -    0s
H  342   258                    4.364320e+07 2.2366e+07  48.8%  29.4    0s
*  531   333              26    4.334470e+07 2.2459e+07  48.2%  27.1    0s
H  624   401                    4.306820e+07 2.2459e+07  47.9%  27.0    1s
H  813   513                    4.303140e+07 2.2563e+07  47.6%  27.1    1s
  1714   749 3.2910e+07   19   41 4.3031e+07 2.2811e+07  47.0%  45.2    5s
  4773   843 3.3612e+07   26   37 4.3031e+07 2.4393e+07  43.3%  62.7   10s
  7737   825 3.2859e+07   28   28 4.3031e+07 3.2630e+07  24.2%  68.3   15s
* 9019  1044              34    4.300060e+07 3.2803e+07  23.7%  68.3   16s
* 9408  1102              34    4.300010e+07 3.2828e+07  23.7%  68.5   17s
 10694  1110 3.3676e+07   26   37 4.3000e+07 3.2920e+07  23.4%  70.2   20s
 12537   977     cutoff   24      4.3000e+07 3.3093e+07  23.0%  72.6   25s
 14511   450     cutoff   25      4.3000e+07 3.3502e+07  22.1%  75.7   30s

Cutting planes:
  Learned: 8
  Gomory: 6
  Cover: 503
  Implied bound: 326
  Clique: 9
  MIR: 52
  Flow cover: 63
  GUB cover: 3
  Zero half: 67

Explored 15671 nodes (1197873 simplex iterations) in 31.93 seconds
Thread count was 4 (of 4 available processors)

Optimal solution found (tolerance 1.00e-04)
Best objective 4.300010000000e+07, best bound 4.300010000000e+07, gap 0.0%
k_c1	900000.0000000002
k_c10	100000.0
k_c2	1000000.0
k_c3	20000.0
k_c4	1000000.0
k_c5	50000.0
k_c6	800000.0000000002
k_c7	930000.0000000002
k_c8	1000000.0
k_c9	950000.0000000002
k_dN	-0.0
o_1	0.0
o_10	-0.0
o_2	-0.0
o_3	0.0
o_4	-0.0
o_5	-0.0
o_6	0.0
o_7	-0.0
o_8	-0.0
o_9	-0.0
p_1	0.0
p_10	1.0
p_2	0.0
p_3	0.0
p_4	0.0
p_5	-0.0
p_6	0.0
p_7	0.0
p_8	0.0
p_9	0.0
phi_c1	10343.0
phi_c10	-0.0
phi_c2	32606.0
phi_c3	18371.0
phi_c4	26452.0
phi_c5	18371.0
phi_c6	6061.0
phi_c7	17454.0
phi_c8	41724.0
phi_c9	26452.0
phi_dN	-0.0
pi_c1	-0.0
pi_c10	50000.0
pi_c2	0.0
pi_c3	-0.0
pi_c4	-0.0
pi_c5	-0.0
pi_c6	-0.0
pi_c7	-0.0
pi_c8	-0.0
pi_c9	-0.0
pi_dN	-0.0
tauD_c1	726575.0
tauD_c10	500000.0
tauD_c2	65000.0
tauD_c3	700000.0
tauD_c4	450000.0
tauD_c5	800000.0
tauD_c6	850000.0
tauD_c7	650000.0
tauD_c8	100000.0
tauD_c9	250000.0
tauD_d0	-0.0
tauD_dN	1000000.0
tauS_c1	904000.0
tauS_c10	660575.0000000001
tauS_c2	855000.0
tauS_c3	54700.0
tauS_c4	833325.0
tauS_c5	851350.0
tauS_c6	897350.0
tauS_c7	877575.0
tauS_c8	889075.0
tauS_c9	867250.0
tauS_d0	-0.0
tauS_dN	800625.0000000001
x_c10_c5	1.0
x_c1_c6	1.0
x_c2_c10	1.0
x_c3_dN	1.0
x_c4_c3	1.0
x_c5_dN	1.0
x_c6_dN	1.0
x_c7_c1	1.0
x_c8_c9	1.0
x_c9_c7	1.0
x_d0_c2	1.0
x_d0_c4	1.0
x_d0_c8	1.0
z_c10_dN	1.0
z_d0_c10	1.0
